
Gurobi 6.5.2 (linux64) logging started Tue Sep  6 10:06:18 2016

Optimize a model with 41 rows, 153 columns and 317 nonzeros
Coefficient statistics:
  Matrix range    [1e+00, 2e+00]
  Objective range [8e+00, 1e+02]
  Bounds range    [1e+00, 1e+00]
  RHS range       [1e+00, 1e+00]
Presolve removed 17 rows and 11 columns
Presolve time: 0.00s
Presolved: 24 rows, 142 columns, 285 nonzeros
Variable types: 0 continuous, 142 integer (142 binary)

Root relaxation: objective 4.840000e+02, 27 iterations, 0.00 seconds

    Nodes    |    Current Node    |     Objective Bounds      |     Work
 Expl Unexpl |  Obj  Depth IntInf | Incumbent    BestBd   Gap | It/Node Time

     0     0  484.00000    0    4          -  484.00000      -     -    0s
H    0     0                     494.0000000  484.00000  2.02%     -    0s
H    0     0                     492.0000000  484.00000  1.63%     -    0s

Cutting planes:
  Gomory: 1
  Cover: 4
  Lazy constraints: 3

Explored 0 nodes (28 simplex iterations) in 0.00 seconds
Thread count was 8 (of 8 available processors)

Optimal solution found (tolerance 1.00e-04)
Best objective 4.920000000000e+02, best bound 4.920000000000e+02, gap 0.0%
